NAME: binpacking2d-06.bp2d
COMMENT: gcut6
NB_ITEMS: 20
BIN_WIDTH: 500
BIN_HEIGHT: 500

ITEMS [id width height]:
1 313 305
2 292 222
3 330 253
4 212 256
5 132 189
6 149 296
7 294 137
8 225 345
9 345 220
10 337 177
11 189 300
12 234 321
13 335 272
14 354 244
15 149 169
16 355 165
17 260 220
18 210 241
19 194 372
20 287 134